1041541
32,8,0,69,29,95,20,19,76,40,68,74,5,54,90,7,88,84,52,43,71,98,67,12,62,92,48,55,17,9,61,30,59,31,73,36,47,79,35,49,60,57,66,34,41,96,2,4,63,1,26,45,27,10,22,33,70,97,53,51,64,81,15,14,82,87,37,75,86,44,3,65,6,80,85,13,38,91,83,21,72,77,78,28,39,11,18,58,89,23,42,16,25,93,50,24,94,46,56,32